Maximize
  - 2.80143 edge_0_1_0_0 - 2.8399215721005 edge_0_2_0_0
   - 0.47098167338783 edge_0_3_0_0 - 0.5898158948420199 edge_0_5_0_0
   - 1.4305804632995 edge_0_6_0_0 - 1.3235419267536 edge_0_7_0_0
   - 2.8051054045848 edge_0_11_0_0 - 2.20007 edge_0_13_0_0
   + 1.020649326371 edge_1_2_0_0 + 0.22918577617716 edge_1_3_0_0
   + 0.3279370806260593 edge_1_5_0_0 + 0.4622948463171938 edge_1_6_0_0
   + 0.5949489827916726 edge_1_7_0_0 + 0.2703957519175059 edge_1_8_0_0
   - 0.5570437742787746 edge_1_9_0_0 - 0.9463068998754139 edge_1_10_0_0
   - 0.2335901691755163 edge_1_11_0_0 - 0.9743900092606849 edge_1_12_0_0
   - 0.30233096372028 edge_1_13_0_0 + 0.3931017405527055 edge_1_14_0_0
   + 3.233727469367877 edge_2_1_0_0 + 1.184722914181392 edge_2_3_0_0
   + 0.9486680548429134 edge_2_5_0_0 + 0.9721169196477281 edge_2_6_0_0
   + 0.7274826937710366 edge_2_7_0_0 + 0.8453209702058861 edge_2_8_0_0
   - 0.5131056098514316 edge_2_9_0_0 + 1.06652 edge_2_11_0_0
   + 0.521242916536936 edge_2_12_0_0 + 0.7048925895818673 edge_2_13_0_0
   + 2.533643269795195 edge_2_14_0_0 + 2.183723099416803 edge_3_1_0_0
   + 2.913022717425 edge_3_2_0_0 + 0.5611139556100257 edge_3_5_0_0
   + 2.488784635969513 edge_3_6_0_0 + 0.416050330142709 edge_3_7_0_0
   + 0.2125347353598838 edge_3_8_0_0 + 1.143734953618668 edge_3_10_0_0
   + 3.438481403775 edge_3_11_0_0 - 0.1841030562325501 edge_3_12_0_0
   + 1.287075389318935 edge_3_13_0_0 + 2.619891615033037 edge_3_14_0_0
   + 0.9578586202043516 edge_5_1_0_0 + 1.605372339739219 edge_5_2_0_0
   + 1.774632451496321 edge_5_3_0_0 + 2.450859070415268 edge_5_6_0_0
   + 0.0374807845521334 edge_5_7_0_0 + 1.345741825964475 edge_5_8_0_0
   - 0.0996135031947435 edge_5_9_0_0 + 1.928843444790223 edge_5_11_0_0
   - 0.4259983556339997 edge_5_12_0_0 + 1.162999294155583 edge_5_13_0_0
   + 3.891845533988676 edge_5_14_0_0 + 0.2081663200008826 edge_6_1_0_0
   + 0.8923290526837605 edge_6_2_0_0 + 0.3890484959478305 edge_6_3_0_0
   + 3.926138864276855 edge_6_5_0_0 + 1.719003179937403 edge_6_7_0_0
   + 1.154146208165649 edge_6_8_0_0 - 0.2390186839279869 edge_6_9_0_0
   + 0.0638773617479267 edge_6_10_0_0 + 2.261494928350345 edge_6_11_0_0
   + 0.4516148440937508 edge_6_12_0_0 + 1.623181315727519 edge_6_13_0_0
   + 2.004901354253484 edge_6_14_0_0 + 2.267854265823997 edge_7_1_0_0
   + 3.116270607155537 edge_7_2_0_0 + 2.659135581264428 edge_7_3_0_0
   + 1.229502608785001 edge_7_5_0_0 + 2.070626991827816 edge_7_6_0_0
   + 0.470830654089104 edge_7_8_0_0 + 0.4753996206797115 edge_7_9_0_0
   + 0.6765762189165904 edge_7_10_0_0 + 1.5018926052312 edge_7_11_0_0
   + 0.3667792813982308 edge_7_12_0_0 + 0.7398885713356801 edge_7_13_0_0
   + 2.442051277848 edge_7_14_0_0 - 0.38536751697538 edge_8_1_0_0
   - 0.4147612142773432 edge_8_2_0_0 - 0.3463895312602872 edge_8_3_0_0
   - 1.036953320371839 edge_8_5_0_0 - 0.2320943745156678 edge_8_6_0_0
   + 0.2555413437891217 edge_8_7_0_0 - 0.1773793551649484 edge_8_9_0_0
   + 0.3195627582528846 edge_8_11_0_0 - 1.043676386510767 edge_8_12_0_0
   - 0.7893978112010042 edge_8_13_0_0 - 0.3339674948911468 edge_8_14_0_0
   - 1.319224463131418 edge_9_2_0_0 - 0.4652077746527138 edge_9_3_0_0
   - 0.2009352035546697 edge_9_5_0_0 - 0.9839073248873296 edge_9_6_0_0
   - 0.1244869086039416 edge_9_7_0_0 + 0.3058847494652121 edge_9_8_0_0
   - 0.4408707342176455 edge_9_11_0_0 + 0.1994905455782066 edge_9_12_0_0
   + 0.3793480051834308 edge_9_13_0_0 + 0.4480633006256869 edge_9_14_0_0
   - 1.62739008732074 edge_10_6_0_0 - 1.215742657128791 edge_10_8_0_0
   - 0.690162782586853 edge_10_9_0_0 - 0.5475819024928305 edge_10_12_0_0
   - 0.6126791088668361 edge_10_13_0_0 + 0.2185595130114 edge_11_1_0_0
   + 0.117206 edge_11_2_0_0 + 0.4727038182375 edge_11_3_0_0
   + 0.9241272831158069 edge_11_5_0_0 + 0.5551494070307661 edge_11_6_0_0
   + 1.604887146519154 edge_11_7_0_0 + 1.574669086430244 edge_11_8_0_0
   + 0.5451833740569412 edge_11_9_0_0 + 3.789790574895116 edge_11_10_0_0
   + 0.3994274932518427 edge_11_12_0_0 + 2.166085342907027 edge_11_13_0_0
   + 2.069081068209019 edge_11_14_0_0 - 1.3886942359465 edge_12_1_0_0
   - 1.495933241910886 edge_12_2_0_0 - 0.7747349785058968 edge_12_3_0_0
   - 1.631907155836164 edge_12_6_0_0 - 1.163313929397047 edge_12_7_0_0
   - 0.7135536309107472 edge_12_8_0_0 - 0.2958924911515117 edge_12_9_0_0
   - 0.0767030310459962 edge_12_10_0_0 - 0.4085624600085326 edge_12_11_0_0
   - 0.062085095098712 edge_12_13_0_0 + 0.2234095611067719 edge_12_14_0_0
   + 0.3917897414186 edge_13_1_0_0 + 0.1839707369214989 edge_13_2_0_0
   + 1.105867235325 edge_13_3_0_0 - 0.0907455791834932 edge_13_5_0_0
   + 1.519673347855676 edge_13_6_0_0 + 0.9908423573473489 edge_13_7_0_0
   + 1.636989632741461 edge_13_8_0_0 + 1.886138675975781 edge_13_9_0_0
   + 0.9869582025196783 edge_13_10_0_0 + 2.185410658267436 edge_13_11_0_0
   + 3.3445288854608 edge_13_12_0_0 + 2.58438 edge_13_14_0_0
   - 1.466750497348398 edge_14_11_0_0 - 0.702633 edge_14_13_0_0
Subject To
 one_parent_1: edge_0_1_0_0 + edge_2_1_0_0 + edge_3_1_0_0 + edge_5_1_0_0
   + edge_6_1_0_0 + edge_7_1_0_0 + edge_8_1_0_0 + edge_11_1_0_0
   + edge_12_1_0_0 + edge_13_1_0_0 = 1
 consume_one_flow_unit_1: flow_0_1_0_0 - flow_1_2_0_0 - flow_1_3_0_0
   - flow_1_5_0_0 - flow_1_6_0_0 - flow_1_7_0_0 - flow_1_8_0_0
   - flow_1_9_0_0 - flow_1_10_0_0 - flow_1_11_0_0 - flow_1_12_0_0
   - flow_1_13_0_0 - flow_1_14_0_0 + flow_2_1_0_0 + flow_3_1_0_0
   + flow_5_1_0_0 + flow_6_1_0_0 + flow_7_1_0_0 + flow_8_1_0_0
   + flow_11_1_0_0 + flow_12_1_0_0 + flow_13_1_0_0 = 1
 one_parent_2: edge_0_2_0_0 + edge_1_2_0_0 + edge_3_2_0_0 + edge_5_2_0_0
   + edge_6_2_0_0 + edge_7_2_0_0 + edge_8_2_0_0 + edge_9_2_0_0
   + edge_11_2_0_0 + edge_12_2_0_0 + edge_13_2_0_0 = 1
 consume_one_flow_unit_2: flow_0_2_0_0 + flow_1_2_0_0 - flow_2_1_0_0
   - flow_2_3_0_0 - flow_2_5_0_0 - flow_2_6_0_0 - flow_2_7_0_0
   - flow_2_8_0_0 - flow_2_9_0_0 - flow_2_11_0_0 - flow_2_12_0_0
   - flow_2_13_0_0 - flow_2_14_0_0 + flow_3_2_0_0 + flow_5_2_0_0
   + flow_6_2_0_0 + flow_7_2_0_0 + flow_8_2_0_0 + flow_9_2_0_0
   + flow_11_2_0_0 + flow_12_2_0_0 + flow_13_2_0_0 = 1
 one_parent_3: edge_0_3_0_0 + edge_1_3_0_0 + edge_2_3_0_0 + edge_5_3_0_0
   + edge_6_3_0_0 + edge_7_3_0_0 + edge_8_3_0_0 + edge_9_3_0_0
   + edge_11_3_0_0 + edge_12_3_0_0 + edge_13_3_0_0 = 1
 consume_one_flow_unit_3: flow_0_3_0_0 + flow_1_3_0_0 + flow_2_3_0_0
   - flow_3_1_0_0 - flow_3_2_0_0 - flow_3_5_0_0 - flow_3_6_0_0
   - flow_3_7_0_0 - flow_3_8_0_0 - flow_3_10_0_0 - flow_3_11_0_0
   - flow_3_12_0_0 - flow_3_13_0_0 - flow_3_14_0_0 + flow_5_3_0_0
   + flow_6_3_0_0 + flow_7_3_0_0 + flow_8_3_0_0 + flow_9_3_0_0
   + flow_11_3_0_0 + flow_12_3_0_0 + flow_13_3_0_0 = 1
 one_parent_4: = 1
 consume_one_flow_unit_4: = 1
 one_parent_5: edge_0_5_0_0 + edge_1_5_0_0 + edge_2_5_0_0 + edge_3_5_0_0
   + edge_6_5_0_0 + edge_7_5_0_0 + edge_8_5_0_0 + edge_9_5_0_0
   + edge_11_5_0_0 + edge_13_5_0_0 = 1
 consume_one_flow_unit_5: flow_0_5_0_0 + flow_1_5_0_0 + flow_2_5_0_0
   + flow_3_5_0_0 - flow_5_1_0_0 - flow_5_2_0_0 - flow_5_3_0_0
   - flow_5_6_0_0 - flow_5_7_0_0 - flow_5_8_0_0 - flow_5_9_0_0
   - flow_5_11_0_0 - flow_5_12_0_0 - flow_5_13_0_0 - flow_5_14_0_0
   + flow_6_5_0_0 + flow_7_5_0_0 + flow_8_5_0_0 + flow_9_5_0_0
   + flow_11_5_0_0 + flow_13_5_0_0 = 1
 one_parent_6: edge_0_6_0_0 + edge_1_6_0_0 + edge_2_6_0_0 + edge_3_6_0_0
   + edge_5_6_0_0 + edge_7_6_0_0 + edge_8_6_0_0 + edge_9_6_0_0
   + edge_10_6_0_0 + edge_11_6_0_0 + edge_12_6_0_0 + edge_13_6_0_0 = 1
 consume_one_flow_unit_6: flow_0_6_0_0 + flow_1_6_0_0 + flow_2_6_0_0
   + flow_3_6_0_0 + flow_5_6_0_0 - flow_6_1_0_0 - flow_6_2_0_0
   - flow_6_3_0_0 - flow_6_5_0_0 - flow_6_7_0_0 - flow_6_8_0_0
   - flow_6_9_0_0 - flow_6_10_0_0 - flow_6_11_0_0 - flow_6_12_0_0
   - flow_6_13_0_0 - flow_6_14_0_0 + flow_7_6_0_0 + flow_8_6_0_0
   + flow_9_6_0_0 + flow_10_6_0_0 + flow_11_6_0_0 + flow_12_6_0_0
   + flow_13_6_0_0 = 1
 one_parent_7: edge_0_7_0_0 + edge_1_7_0_0 + edge_2_7_0_0 + edge_3_7_0_0
   + edge_5_7_0_0 + edge_6_7_0_0 + edge_8_7_0_0 + edge_9_7_0_0
   + edge_11_7_0_0 + edge_12_7_0_0 + edge_13_7_0_0 = 1
 consume_one_flow_unit_7: flow_0_7_0_0 + flow_1_7_0_0 + flow_2_7_0_0
   + flow_3_7_0_0 + flow_5_7_0_0 + flow_6_7_0_0 - flow_7_1_0_0
   - flow_7_2_0_0 - flow_7_3_0_0 - flow_7_5_0_0 - flow_7_6_0_0
   - flow_7_8_0_0 - flow_7_9_0_0 - flow_7_10_0_0 - flow_7_11_0_0
   - flow_7_12_0_0 - flow_7_13_0_0 - flow_7_14_0_0 + flow_8_7_0_0
   + flow_9_7_0_0 + flow_11_7_0_0 + flow_12_7_0_0 + flow_13_7_0_0 = 1
 one_parent_8: edge_1_8_0_0 + edge_2_8_0_0 + edge_3_8_0_0 + edge_5_8_0_0
   + edge_6_8_0_0 + edge_7_8_0_0 + edge_9_8_0_0 + edge_10_8_0_0
   + edge_11_8_0_0 + edge_12_8_0_0 + edge_13_8_0_0 = 1
 consume_one_flow_unit_8: flow_1_8_0_0 + flow_2_8_0_0 + flow_3_8_0_0
   + flow_5_8_0_0 + flow_6_8_0_0 + flow_7_8_0_0 - flow_8_1_0_0
   - flow_8_2_0_0 - flow_8_3_0_0 - flow_8_5_0_0 - flow_8_6_0_0
   - flow_8_7_0_0 - flow_8_9_0_0 - flow_8_11_0_0 - flow_8_12_0_0
   - flow_8_13_0_0 - flow_8_14_0_0 + flow_9_8_0_0 + flow_10_8_0_0
   + flow_11_8_0_0 + flow_12_8_0_0 + flow_13_8_0_0 = 1
 one_parent_9: edge_1_9_0_0 + edge_2_9_0_0 + edge_5_9_0_0 + edge_6_9_0_0
   + edge_7_9_0_0 + edge_8_9_0_0 + edge_10_9_0_0 + edge_11_9_0_0
   + edge_12_9_0_0 + edge_13_9_0_0 = 1
 consume_one_flow_unit_9: flow_1_9_0_0 + flow_2_9_0_0 + flow_5_9_0_0
   + flow_6_9_0_0 + flow_7_9_0_0 + flow_8_9_0_0 - flow_9_2_0_0
   - flow_9_3_0_0 - flow_9_5_0_0 - flow_9_6_0_0 - flow_9_7_0_0
   - flow_9_8_0_0 - flow_9_11_0_0 - flow_9_12_0_0 - flow_9_13_0_0
   - flow_9_14_0_0 + flow_10_9_0_0 + flow_11_9_0_0 + flow_12_9_0_0
   + flow_13_9_0_0 = 1
 one_parent_10: edge_1_10_0_0 + edge_3_10_0_0 + edge_6_10_0_0
   + edge_7_10_0_0 + edge_11_10_0_0 + edge_12_10_0_0 + edge_13_10_0_0 = 1
 consume_one_flow_unit_10: flow_1_10_0_0 + flow_3_10_0_0 + flow_6_10_0_0
   + flow_7_10_0_0 - flow_10_6_0_0 - flow_10_8_0_0 - flow_10_9_0_0
   - flow_10_12_0_0 - flow_10_13_0_0 + flow_11_10_0_0 + flow_12_10_0_0
   + flow_13_10_0_0 = 1
 one_parent_11: edge_0_11_0_0 + edge_1_11_0_0 + edge_2_11_0_0
   + edge_3_11_0_0 + edge_5_11_0_0 + edge_6_11_0_0 + edge_7_11_0_0
   + edge_8_11_0_0 + edge_9_11_0_0 + edge_12_11_0_0 + edge_13_11_0_0
   + edge_14_11_0_0 = 1
 consume_one_flow_unit_11: flow_0_11_0_0 + flow_1_11_0_0 + flow_2_11_0_0
   + flow_3_11_0_0 + flow_5_11_0_0 + flow_6_11_0_0 + flow_7_11_0_0
   + flow_8_11_0_0 + flow_9_11_0_0 - flow_11_1_0_0 - flow_11_2_0_0
   - flow_11_3_0_0 - flow_11_5_0_0 - flow_11_6_0_0 - flow_11_7_0_0
   - flow_11_8_0_0 - flow_11_9_0_0 - flow_11_10_0_0 - flow_11_12_0_0
   - flow_11_13_0_0 - flow_11_14_0_0 + flow_12_11_0_0 + flow_13_11_0_0
   + flow_14_11_0_0 = 1
 one_parent_12: edge_1_12_0_0 + edge_2_12_0_0 + edge_3_12_0_0
   + edge_5_12_0_0 + edge_6_12_0_0 + edge_7_12_0_0 + edge_8_12_0_0
   + edge_9_12_0_0 + edge_10_12_0_0 + edge_11_12_0_0 + edge_13_12_0_0 = 1
 consume_one_flow_unit_12: flow_1_12_0_0 + flow_2_12_0_0 + flow_3_12_0_0
   + flow_5_12_0_0 + flow_6_12_0_0 + flow_7_12_0_0 + flow_8_12_0_0
   + flow_9_12_0_0 + flow_10_12_0_0 + flow_11_12_0_0 - flow_12_1_0_0
   - flow_12_2_0_0 - flow_12_3_0_0 - flow_12_6_0_0 - flow_12_7_0_0
   - flow_12_8_0_0 - flow_12_9_0_0 - flow_12_10_0_0 - flow_12_11_0_0
   - flow_12_13_0_0 - flow_12_14_0_0 + flow_13_12_0_0 = 1
 one_parent_13: edge_0_13_0_0 + edge_1_13_0_0 + edge_2_13_0_0
   + edge_3_13_0_0 + edge_5_13_0_0 + edge_6_13_0_0 + edge_7_13_0_0
   + edge_8_13_0_0 + edge_9_13_0_0 + edge_10_13_0_0 + edge_11_13_0_0
   + edge_12_13_0_0 + edge_14_13_0_0 = 1
 consume_one_flow_unit_13: flow_0_13_0_0 + flow_1_13_0_0 + flow_2_13_0_0
   + flow_3_13_0_0 + flow_5_13_0_0 + flow_6_13_0_0 + flow_7_13_0_0
   + flow_8_13_0_0 + flow_9_13_0_0 + flow_10_13_0_0 + flow_11_13_0_0
   + flow_12_13_0_0 - flow_13_1_0_0 - flow_13_2_0_0 - flow_13_3_0_0
   - flow_13_5_0_0 - flow_13_6_0_0 - flow_13_7_0_0 - flow_13_8_0_0
   - flow_13_9_0_0 - flow_13_10_0_0 - flow_13_11_0_0 - flow_13_12_0_0
   - flow_13_14_0_0 + flow_14_13_0_0 = 1
 one_parent_14: edge_1_14_0_0 + edge_2_14_0_0 + edge_3_14_0_0
   + edge_5_14_0_0 + edge_6_14_0_0 + edge_7_14_0_0 + edge_8_14_0_0
   + edge_9_14_0_0 + edge_11_14_0_0 + edge_12_14_0_0 + edge_13_14_0_0 = 1
 consume_one_flow_unit_14: flow_1_14_0_0 + flow_2_14_0_0 + flow_3_14_0_0
   + flow_5_14_0_0 + flow_6_14_0_0 + flow_7_14_0_0 + flow_8_14_0_0
   + flow_9_14_0_0 + flow_11_14_0_0 + flow_12_14_0_0 + flow_13_14_0_0
   - flow_14_11_0_0 - flow_14_13_0_0 = 1
 root_flow: flow_0_1_0_0 + flow_0_2_0_0 + flow_0_3_0_0 + flow_0_5_0_0
   + flow_0_6_0_0 + flow_0_7_0_0 + flow_0_11_0_0 + flow_0_13_0_0 = 14
 inactive_no_flow_0_1_0_0: flow_0_1_0_0 - 1000 edge_0_1_0_0 <= 0
 inactive_no_flow_0_2_0_0: flow_0_2_0_0 - 1000 edge_0_2_0_0 <= 0
 inactive_no_flow_0_3_0_0: flow_0_3_0_0 - 1000 edge_0_3_0_0 <= 0
 inactive_no_flow_0_5_0_0: flow_0_5_0_0 - 1000 edge_0_5_0_0 <= 0
 inactive_no_flow_0_6_0_0: flow_0_6_0_0 - 1000 edge_0_6_0_0 <= 0
 inactive_no_flow_0_7_0_0: flow_0_7_0_0 - 1000 edge_0_7_0_0 <= 0
 inactive_no_flow_0_11_0_0: flow_0_11_0_0 - 1000 edge_0_11_0_0 <= 0
 inactive_no_flow_0_13_0_0: flow_0_13_0_0 - 1000 edge_0_13_0_0 <= 0
 inactive_no_flow_1_2_0_0: flow_1_2_0_0 - 1000 edge_1_2_0_0 <= 0
 inactive_no_flow_1_3_0_0: flow_1_3_0_0 - 1000 edge_1_3_0_0 <= 0
 inactive_no_flow_1_5_0_0: flow_1_5_0_0 - 1000 edge_1_5_0_0 <= 0
 inactive_no_flow_1_6_0_0: flow_1_6_0_0 - 1000 edge_1_6_0_0 <= 0
 inactive_no_flow_1_7_0_0: flow_1_7_0_0 - 1000 edge_1_7_0_0 <= 0
 inactive_no_flow_1_8_0_0: flow_1_8_0_0 - 1000 edge_1_8_0_0 <= 0
 inactive_no_flow_1_9_0_0: flow_1_9_0_0 - 1000 edge_1_9_0_0 <= 0
 inactive_no_flow_1_10_0_0: flow_1_10_0_0 - 1000 edge_1_10_0_0 <= 0
 inactive_no_flow_1_11_0_0: flow_1_11_0_0 - 1000 edge_1_11_0_0 <= 0
 inactive_no_flow_1_12_0_0: flow_1_12_0_0 - 1000 edge_1_12_0_0 <= 0
 inactive_no_flow_1_13_0_0: flow_1_13_0_0 - 1000 edge_1_13_0_0 <= 0
 inactive_no_flow_1_14_0_0: flow_1_14_0_0 - 1000 edge_1_14_0_0 <= 0
 inactive_no_flow_2_1_0_0: flow_2_1_0_0 - 1000 edge_2_1_0_0 <= 0
 inactive_no_flow_2_3_0_0: flow_2_3_0_0 - 1000 edge_2_3_0_0 <= 0
 inactive_no_flow_2_5_0_0: flow_2_5_0_0 - 1000 edge_2_5_0_0 <= 0
 inactive_no_flow_2_6_0_0: flow_2_6_0_0 - 1000 edge_2_6_0_0 <= 0
 inactive_no_flow_2_7_0_0: flow_2_7_0_0 - 1000 edge_2_7_0_0 <= 0
 inactive_no_flow_2_8_0_0: flow_2_8_0_0 - 1000 edge_2_8_0_0 <= 0
 inactive_no_flow_2_9_0_0: flow_2_9_0_0 - 1000 edge_2_9_0_0 <= 0
 inactive_no_flow_2_11_0_0: flow_2_11_0_0 - 1000 edge_2_11_0_0 <= 0
 inactive_no_flow_2_12_0_0: flow_2_12_0_0 - 1000 edge_2_12_0_0 <= 0
 inactive_no_flow_2_13_0_0: flow_2_13_0_0 - 1000 edge_2_13_0_0 <= 0
 inactive_no_flow_2_14_0_0: flow_2_14_0_0 - 1000 edge_2_14_0_0 <= 0
 inactive_no_flow_3_1_0_0: flow_3_1_0_0 - 1000 edge_3_1_0_0 <= 0
 inactive_no_flow_3_2_0_0: flow_3_2_0_0 - 1000 edge_3_2_0_0 <= 0
 inactive_no_flow_3_5_0_0: flow_3_5_0_0 - 1000 edge_3_5_0_0 <= 0
 inactive_no_flow_3_6_0_0: flow_3_6_0_0 - 1000 edge_3_6_0_0 <= 0
 inactive_no_flow_3_7_0_0: flow_3_7_0_0 - 1000 edge_3_7_0_0 <= 0
 inactive_no_flow_3_8_0_0: flow_3_8_0_0 - 1000 edge_3_8_0_0 <= 0
 inactive_no_flow_3_10_0_0: flow_3_10_0_0 - 1000 edge_3_10_0_0 <= 0
 inactive_no_flow_3_11_0_0: flow_3_11_0_0 - 1000 edge_3_11_0_0 <= 0
 inactive_no_flow_3_12_0_0: flow_3_12_0_0 - 1000 edge_3_12_0_0 <= 0
 inactive_no_flow_3_13_0_0: flow_3_13_0_0 - 1000 edge_3_13_0_0 <= 0
 inactive_no_flow_3_14_0_0: flow_3_14_0_0 - 1000 edge_3_14_0_0 <= 0
 inactive_no_flow_5_1_0_0: flow_5_1_0_0 - 1000 edge_5_1_0_0 <= 0
 inactive_no_flow_5_2_0_0: flow_5_2_0_0 - 1000 edge_5_2_0_0 <= 0
 inactive_no_flow_5_3_0_0: flow_5_3_0_0 - 1000 edge_5_3_0_0 <= 0
 inactive_no_flow_5_6_0_0: flow_5_6_0_0 - 1000 edge_5_6_0_0 <= 0
 inactive_no_flow_5_7_0_0: flow_5_7_0_0 - 1000 edge_5_7_0_0 <= 0
 inactive_no_flow_5_8_0_0: flow_5_8_0_0 - 1000 edge_5_8_0_0 <= 0
 inactive_no_flow_5_9_0_0: flow_5_9_0_0 - 1000 edge_5_9_0_0 <= 0
 inactive_no_flow_5_11_0_0: flow_5_11_0_0 - 1000 edge_5_11_0_0 <= 0
 inactive_no_flow_5_12_0_0: flow_5_12_0_0 - 1000 edge_5_12_0_0 <= 0
 inactive_no_flow_5_13_0_0: flow_5_13_0_0 - 1000 edge_5_13_0_0 <= 0
 inactive_no_flow_5_14_0_0: flow_5_14_0_0 - 1000 edge_5_14_0_0 <= 0
 inactive_no_flow_6_1_0_0: flow_6_1_0_0 - 1000 edge_6_1_0_0 <= 0
 inactive_no_flow_6_2_0_0: flow_6_2_0_0 - 1000 edge_6_2_0_0 <= 0
 inactive_no_flow_6_3_0_0: flow_6_3_0_0 - 1000 edge_6_3_0_0 <= 0
 inactive_no_flow_6_5_0_0: flow_6_5_0_0 - 1000 edge_6_5_0_0 <= 0
 inactive_no_flow_6_7_0_0: flow_6_7_0_0 - 1000 edge_6_7_0_0 <= 0
 inactive_no_flow_6_8_0_0: flow_6_8_0_0 - 1000 edge_6_8_0_0 <= 0
 inactive_no_flow_6_9_0_0: flow_6_9_0_0 - 1000 edge_6_9_0_0 <= 0
 inactive_no_flow_6_10_0_0: flow_6_10_0_0 - 1000 edge_6_10_0_0 <= 0
 inactive_no_flow_6_11_0_0: flow_6_11_0_0 - 1000 edge_6_11_0_0 <= 0
 inactive_no_flow_6_12_0_0: flow_6_12_0_0 - 1000 edge_6_12_0_0 <= 0
 inactive_no_flow_6_13_0_0: flow_6_13_0_0 - 1000 edge_6_13_0_0 <= 0
 inactive_no_flow_6_14_0_0: flow_6_14_0_0 - 1000 edge_6_14_0_0 <= 0
 inactive_no_flow_7_1_0_0: flow_7_1_0_0 - 1000 edge_7_1_0_0 <= 0
 inactive_no_flow_7_2_0_0: flow_7_2_0_0 - 1000 edge_7_2_0_0 <= 0
 inactive_no_flow_7_3_0_0: flow_7_3_0_0 - 1000 edge_7_3_0_0 <= 0
 inactive_no_flow_7_5_0_0: flow_7_5_0_0 - 1000 edge_7_5_0_0 <= 0
 inactive_no_flow_7_6_0_0: flow_7_6_0_0 - 1000 edge_7_6_0_0 <= 0
 inactive_no_flow_7_8_0_0: flow_7_8_0_0 - 1000 edge_7_8_0_0 <= 0
 inactive_no_flow_7_9_0_0: flow_7_9_0_0 - 1000 edge_7_9_0_0 <= 0
 inactive_no_flow_7_10_0_0: flow_7_10_0_0 - 1000 edge_7_10_0_0 <= 0
 inactive_no_flow_7_11_0_0: flow_7_11_0_0 - 1000 edge_7_11_0_0 <= 0
 inactive_no_flow_7_12_0_0: flow_7_12_0_0 - 1000 edge_7_12_0_0 <= 0
 inactive_no_flow_7_13_0_0: flow_7_13_0_0 - 1000 edge_7_13_0_0 <= 0
 inactive_no_flow_7_14_0_0: flow_7_14_0_0 - 1000 edge_7_14_0_0 <= 0
 inactive_no_flow_8_1_0_0: flow_8_1_0_0 - 1000 edge_8_1_0_0 <= 0
 inactive_no_flow_8_2_0_0: flow_8_2_0_0 - 1000 edge_8_2_0_0 <= 0
 inactive_no_flow_8_3_0_0: flow_8_3_0_0 - 1000 edge_8_3_0_0 <= 0
 inactive_no_flow_8_5_0_0: flow_8_5_0_0 - 1000 edge_8_5_0_0 <= 0
 inactive_no_flow_8_6_0_0: flow_8_6_0_0 - 1000 edge_8_6_0_0 <= 0
 inactive_no_flow_8_7_0_0: flow_8_7_0_0 - 1000 edge_8_7_0_0 <= 0
 inactive_no_flow_8_9_0_0: flow_8_9_0_0 - 1000 edge_8_9_0_0 <= 0
 inactive_no_flow_8_11_0_0: flow_8_11_0_0 - 1000 edge_8_11_0_0 <= 0
 inactive_no_flow_8_12_0_0: flow_8_12_0_0 - 1000 edge_8_12_0_0 <= 0
 inactive_no_flow_8_13_0_0: flow_8_13_0_0 - 1000 edge_8_13_0_0 <= 0
 inactive_no_flow_8_14_0_0: flow_8_14_0_0 - 1000 edge_8_14_0_0 <= 0
 inactive_no_flow_9_2_0_0: flow_9_2_0_0 - 1000 edge_9_2_0_0 <= 0
 inactive_no_flow_9_3_0_0: flow_9_3_0_0 - 1000 edge_9_3_0_0 <= 0
 inactive_no_flow_9_5_0_0: flow_9_5_0_0 - 1000 edge_9_5_0_0 <= 0
 inactive_no_flow_9_6_0_0: flow_9_6_0_0 - 1000 edge_9_6_0_0 <= 0
 inactive_no_flow_9_7_0_0: flow_9_7_0_0 - 1000 edge_9_7_0_0 <= 0
 inactive_no_flow_9_8_0_0: flow_9_8_0_0 - 1000 edge_9_8_0_0 <= 0
 inactive_no_flow_9_11_0_0: flow_9_11_0_0 - 1000 edge_9_11_0_0 <= 0
 inactive_no_flow_9_12_0_0: flow_9_12_0_0 - 1000 edge_9_12_0_0 <= 0
 inactive_no_flow_9_13_0_0: flow_9_13_0_0 - 1000 edge_9_13_0_0 <= 0
 inactive_no_flow_9_14_0_0: flow_9_14_0_0 - 1000 edge_9_14_0_0 <= 0
 inactive_no_flow_10_6_0_0: flow_10_6_0_0 - 1000 edge_10_6_0_0 <= 0
 inactive_no_flow_10_8_0_0: flow_10_8_0_0 - 1000 edge_10_8_0_0 <= 0
 inactive_no_flow_10_9_0_0: flow_10_9_0_0 - 1000 edge_10_9_0_0 <= 0
 inactive_no_flow_10_12_0_0: flow_10_12_0_0 - 1000 edge_10_12_0_0 <= 0
 inactive_no_flow_10_13_0_0: flow_10_13_0_0 - 1000 edge_10_13_0_0 <= 0
 inactive_no_flow_11_1_0_0: flow_11_1_0_0 - 1000 edge_11_1_0_0 <= 0
 inactive_no_flow_11_2_0_0: flow_11_2_0_0 - 1000 edge_11_2_0_0 <= 0
 inactive_no_flow_11_3_0_0: flow_11_3_0_0 - 1000 edge_11_3_0_0 <= 0
 inactive_no_flow_11_5_0_0: flow_11_5_0_0 - 1000 edge_11_5_0_0 <= 0
 inactive_no_flow_11_6_0_0: flow_11_6_0_0 - 1000 edge_11_6_0_0 <= 0
 inactive_no_flow_11_7_0_0: flow_11_7_0_0 - 1000 edge_11_7_0_0 <= 0
 inactive_no_flow_11_8_0_0: flow_11_8_0_0 - 1000 edge_11_8_0_0 <= 0
 inactive_no_flow_11_9_0_0: flow_11_9_0_0 - 1000 edge_11_9_0_0 <= 0
 inactive_no_flow_11_10_0_0: flow_11_10_0_0 - 1000 edge_11_10_0_0 <= 0
 inactive_no_flow_11_12_0_0: flow_11_12_0_0 - 1000 edge_11_12_0_0 <= 0
 inactive_no_flow_11_13_0_0: flow_11_13_0_0 - 1000 edge_11_13_0_0 <= 0
 inactive_no_flow_11_14_0_0: flow_11_14_0_0 - 1000 edge_11_14_0_0 <= 0
 inactive_no_flow_12_1_0_0: flow_12_1_0_0 - 1000 edge_12_1_0_0 <= 0
 inactive_no_flow_12_2_0_0: flow_12_2_0_0 - 1000 edge_12_2_0_0 <= 0
 inactive_no_flow_12_3_0_0: flow_12_3_0_0 - 1000 edge_12_3_0_0 <= 0
 inactive_no_flow_12_6_0_0: flow_12_6_0_0 - 1000 edge_12_6_0_0 <= 0
 inactive_no_flow_12_7_0_0: flow_12_7_0_0 - 1000 edge_12_7_0_0 <= 0
 inactive_no_flow_12_8_0_0: flow_12_8_0_0 - 1000 edge_12_8_0_0 <= 0
 inactive_no_flow_12_9_0_0: flow_12_9_0_0 - 1000 edge_12_9_0_0 <= 0
 inactive_no_flow_12_10_0_0: flow_12_10_0_0 - 1000 edge_12_10_0_0 <= 0
 inactive_no_flow_12_11_0_0: flow_12_11_0_0 - 1000 edge_12_11_0_0 <= 0
 inactive_no_flow_12_13_0_0: flow_12_13_0_0 - 1000 edge_12_13_0_0 <= 0
 inactive_no_flow_12_14_0_0: flow_12_14_0_0 - 1000 edge_12_14_0_0 <= 0
 inactive_no_flow_13_1_0_0: flow_13_1_0_0 - 1000 edge_13_1_0_0 <= 0
 inactive_no_flow_13_2_0_0: flow_13_2_0_0 - 1000 edge_13_2_0_0 <= 0
 inactive_no_flow_13_3_0_0: flow_13_3_0_0 - 1000 edge_13_3_0_0 <= 0
 inactive_no_flow_13_5_0_0: flow_13_5_0_0 - 1000 edge_13_5_0_0 <= 0
 inactive_no_flow_13_6_0_0: flow_13_6_0_0 - 1000 edge_13_6_0_0 <= 0
 inactive_no_flow_13_7_0_0: flow_13_7_0_0 - 1000 edge_13_7_0_0 <= 0
 inactive_no_flow_13_8_0_0: flow_13_8_0_0 - 1000 edge_13_8_0_0 <= 0
 inactive_no_flow_13_9_0_0: flow_13_9_0_0 - 1000 edge_13_9_0_0 <= 0
 inactive_no_flow_13_10_0_0: flow_13_10_0_0 - 1000 edge_13_10_0_0 <= 0
 inactive_no_flow_13_11_0_0: flow_13_11_0_0 - 1000 edge_13_11_0_0 <= 0
 inactive_no_flow_13_12_0_0: flow_13_12_0_0 - 1000 edge_13_12_0_0 <= 0
 inactive_no_flow_13_14_0_0: flow_13_14_0_0 - 1000 edge_13_14_0_0 <= 0
 inactive_no_flow_14_11_0_0: flow_14_11_0_0 - 1000 edge_14_11_0_0 <= 0
 inactive_no_flow_14_13_0_0: flow_14_13_0_0 - 1000 edge_14_13_0_0 <= 0
Bounds
Binaries
 edge_0_1_0_0 edge_0_2_0_0 edge_0_3_0_0 edge_0_5_0_0 edge_0_6_0_0
 edge_0_7_0_0 edge_0_11_0_0 edge_0_13_0_0 edge_1_2_0_0 edge_1_3_0_0
 edge_1_5_0_0 edge_1_6_0_0 edge_1_7_0_0 edge_1_8_0_0 edge_1_9_0_0
 edge_1_10_0_0 edge_1_11_0_0 edge_1_12_0_0 edge_1_13_0_0 edge_1_14_0_0
 edge_2_1_0_0 edge_2_3_0_0 edge_2_5_0_0 edge_2_6_0_0 edge_2_7_0_0
 edge_2_8_0_0 edge_2_9_0_0 edge_2_11_0_0 edge_2_12_0_0 edge_2_13_0_0
 edge_2_14_0_0 edge_3_1_0_0 edge_3_2_0_0 edge_3_5_0_0 edge_3_6_0_0
 edge_3_7_0_0 edge_3_8_0_0 edge_3_10_0_0 edge_3_11_0_0 edge_3_12_0_0
 edge_3_13_0_0 edge_3_14_0_0 edge_5_1_0_0 edge_5_2_0_0 edge_5_3_0_0
 edge_5_6_0_0 edge_5_7_0_0 edge_5_8_0_0 edge_5_9_0_0 edge_5_11_0_0
 edge_5_12_0_0 edge_5_13_0_0 edge_5_14_0_0 edge_6_1_0_0 edge_6_2_0_0
 edge_6_3_0_0 edge_6_5_0_0 edge_6_7_0_0 edge_6_8_0_0 edge_6_9_0_0
 edge_6_10_0_0 edge_6_11_0_0 edge_6_12_0_0 edge_6_13_0_0 edge_6_14_0_0
 edge_7_1_0_0 edge_7_2_0_0 edge_7_3_0_0 edge_7_5_0_0 edge_7_6_0_0
 edge_7_8_0_0 edge_7_9_0_0 edge_7_10_0_0 edge_7_11_0_0 edge_7_12_0_0
 edge_7_13_0_0 edge_7_14_0_0 edge_8_1_0_0 edge_8_2_0_0 edge_8_3_0_0
 edge_8_5_0_0 edge_8_6_0_0 edge_8_7_0_0 edge_8_9_0_0 edge_8_11_0_0
 edge_8_12_0_0 edge_8_13_0_0 edge_8_14_0_0 edge_9_2_0_0 edge_9_3_0_0
 edge_9_5_0_0 edge_9_6_0_0 edge_9_7_0_0 edge_9_8_0_0 edge_9_11_0_0
 edge_9_12_0_0 edge_9_13_0_0 edge_9_14_0_0 edge_10_6_0_0 edge_10_8_0_0
 edge_10_9_0_0 edge_10_12_0_0 edge_10_13_0_0 edge_11_1_0_0 edge_11_2_0_0
 edge_11_3_0_0 edge_11_5_0_0 edge_11_6_0_0 edge_11_7_0_0 edge_11_8_0_0
 edge_11_9_0_0 edge_11_10_0_0 edge_11_12_0_0 edge_11_13_0_0 edge_11_14_0_0
 edge_12_1_0_0 edge_12_2_0_0 edge_12_3_0_0 edge_12_6_0_0 edge_12_7_0_0
 edge_12_8_0_0 edge_12_9_0_0 edge_12_10_0_0 edge_12_11_0_0 edge_12_13_0_0
 edge_12_14_0_0 edge_13_1_0_0 edge_13_2_0_0 edge_13_3_0_0 edge_13_5_0_0
 edge_13_6_0_0 edge_13_7_0_0 edge_13_8_0_0 edge_13_9_0_0 edge_13_10_0_0
 edge_13_11_0_0 edge_13_12_0_0 edge_13_14_0_0 edge_14_11_0_0 edge_14_13_0_0
End
